* ENCODING=ISO-8859-1
NAME          CPLEX
ROWS
 N  obj1    
 G  c1      
 G  c2      
 G  c3      
 G  c4      
 G  c5      
 G  c6      
 G  c7      
 G  c8      
 G  c9      
 G  c10     
 G  c11     
 G  c12     
 G  c13     
 G  c14     
 G  c15     
 G  c16     
 G  c17     
 G  c18     
 G  c19     
 G  c20     
 G  c21     
 G  c22     
 G  c23     
 G  c24     
 G  c25     
 G  c26     
 G  c27     
 G  c28     
 G  c29     
 G  c30     
 G  c31     
 G  c32     
 G  c33     
 G  c34     
 G  c35     
 G  c36     
 G  c37     
 G  c38     
 G  c39     
 G  c40     
 G  c41     
 G  c42     
 G  c43     
 G  c44     
 G  c45     
 G  c46     
 G  c47     
 G  c48     
 G  c49     
 G  c50     
 G  c51     
 G  c52     
 G  c53     
 G  c54     
 G  c55     
 G  c56     
 G  c57     
 G  c58     
 G  c59     
 G  c60     
 G  c61     
 G  c62     
 G  c63     
 G  c64     
 G  c65     
 G  c66     
 G  c67     
 G  c68     
 G  c69     
 G  c70     
COLUMNS
    MARK0000  'MARKER'                 'INTORG'
    x1        obj1                            1
    x1        c17                           526
    x1        c50                           991
    x1        c55                           250
    x1        c62                           829
    x2        obj1                            1
    x2        c21                           878
    x2        c28                           944
    x2        c29                           601
    x2        c43                           757
    x2        c46                           569
    x2        c50                           252
    x2        c64                           365
    x2        c66                           943
    x2        c67                           553
    x3        obj1                            1
    x3        c6                            198
    x3        c20                           115
    x3        c27                           266
    x3        c38                           595
    x3        c43                           679
    x3        c48                           635
    x3        c54                           386
    x4        obj1                            1
    x4        c19                           842
    x4        c21                           755
    x4        c31                           863
    x4        c32                           139
    x4        c36                           181
    x4        c46                           330
    x4        c49                           619
    x4        c50                           744
    x4        c66                           376
    x4        c67                           652
    x5        obj1                            1
    x5        c3                            845
    x5        c16                           389
    x5        c19                           411
    x5        c21                           720
    x5        c24                           635
    x5        c26                           178
    x5        c28                           103
    x5        c36                           419
    x6        obj1                            1
    x6        c14                           344
    x6        c20                           206
    x6        c33                           138
    x6        c37                           115
    x6        c43                           710
    x6        c48                           582
    x6        c69                           847
    x7        obj1                            1
    x7        c1                            265
    x7        c11                           246
    x7        c16                           702
    x7        c43                           170
    x7        c52                           625
    x7        c63                           445
    x8        obj1                            1
    x8        c23                           508
    x8        c66                           111
    x8        c69                           120
    x9        obj1                            1
    x9        c3                            293
    x9        c17                           629
    x9        c37                           362
    x9        c49                           292
    x9        c56                           551
    x9        c58                           185
    x9        c68                           884
    x10       obj1                            1
    x10       c3                            842
    x10       c11                           516
    x10       c18                           222
    x10       c24                          1000
    x10       c34                           791
    x10       c48                           664
    x11       obj1                            1
    x11       c17                           221
    x11       c22                           222
    x11       c37                           129
    x11       c45                           610
    x11       c49                           569
    x11       c55                           437
    x11       c61                           980
    x12       obj1                            1
    x12       c13                           222
    x12       c21                           856
    x12       c31                           923
    x12       c41                           499
    x12       c44                           115
    x12       c63                           704
    x13       obj1                            1
    x13       c4                            483
    x13       c52                           424
    x13       c54                           372
    x13       c57                           219
    x14       obj1                            1
    x14       c4                            797
    x14       c9                            862
    x14       c32                           649
    x14       c55                           659
    x14       c57                           841
    x14       c60                           625
    x14       c68                           410
    x14       c70                           611
    x15       obj1                            1
    x15       c4                            109
    x15       c22                           112
    x15       c29                           160
    x15       c31                           908
    x15       c38                           470
    x15       c39                           693
    x15       c40                           368
    x15       c42                           691
    x15       c61                           936
    x16       obj1                            1
    x16       c5                            274
    x16       c10                           142
    x16       c16                           119
    x16       c26                           277
    x16       c31                           145
    x16       c32                           106
    x16       c47                           764
    x17       obj1                            1
    x17       c7                            895
    x17       c21                           696
    x17       c42                           768
    x17       c43                           957
    x17       c50                           712
    x17       c60                           185
    x17       c63                           343
    x17       c69                           834
    x18       obj1                            1
    x18       c13                           512
    x18       c18                           468
    x18       c32                           218
    x18       c35                           775
    x18       c41                           226
    x18       c55                           531
    x18       c62                           601
    x19       obj1                            1
    x19       c15                           354
    x19       c21                           825
    x19       c23                           684
    x19       c26                           410
    x19       c31                           120
    x19       c40                           171
    x19       c68                           882
    x19       c69                           653
    x20       obj1                            1
    x20       c3                            413
    x20       c10                           929
    x20       c17                           896
    x20       c25                           213
    x20       c27                           977
    x20       c32                           803
    x20       c39                           955
    x20       c45                           390
    x21       obj1                            1
    x21       c2                            544
    x21       c5                            140
    x21       c8                            248
    x21       c27                           294
    x21       c31                           792
    x21       c32                           811
    x21       c33                           248
    x21       c44                           353
    x21       c46                           407
    x21       c56                           320
    x21       c65                           101
    x21       c68                           660
    x22       obj1                            1
    x22       c2                            244
    x22       c23                           422
    x22       c56                           272
    x22       c65                           799
    x22       c69                           112
    x23       obj1                            1
    x23       c4                            338
    x23       c5                            354
    x23       c11                           649
    x23       c15                           946
    x23       c20                           283
    x23       c21                           828
    x23       c30                           873
    x23       c53                           506
    x23       c62                           284
    x23       c64                           830
    x24       obj1                            1
    x24       c5                            142
    x24       c43                           136
    x24       c62                           501
    x24       c70                           875
    x25       obj1                            1
    x25       c8                            604
    x25       c10                           702
    x25       c29                           138
    x25       c34                           628
    x25       c51                           381
    x25       c53                           603
    x26       obj1                            1
    x26       c1                            633
    x26       c13                           457
    x26       c20                           133
    x26       c21                           414
    x26       c40                           202
    x27       obj1                            1
    x27       c5                            545
    x27       c29                           226
    x27       c34                           235
    x27       c44                           604
    x27       c50                           194
    x27       c70                           788
    x28       obj1                            1
    x28       c14                           685
    x28       c20                           962
    x28       c27                           427
    x28       c34                           573
    x28       c37                           919
    x28       c66                           255
    x29       obj1                            1
    x29       c13                           708
    x29       c17                           970
    x29       c40                           122
    x29       c59                           974
    x29       c60                           767
    x29       c65                           577
    x29       c68                           581
    x30       obj1                            1
    x30       c53                           363
    x31       obj1                            1
    x31       c6                            845
    x31       c7                            284
    x31       c70                           402
    x32       obj1                            1
    x32       c6                            890
    x32       c10                           997
    x32       c17                           205
    x32       c22                           947
    x32       c29                           889
    x32       c40                           767
    x32       c64                           505
    x32       c67                           516
    x33       obj1                            1
    x33       c1                            429
    x33       c7                            287
    x33       c27                           986
    x33       c34                           781
    x33       c41                           562
    x33       c46                           339
    x33       c54                           252
    x34       obj1                            1
    x34       c20                           830
    x34       c40                           956
    x34       c53                           698
    x34       c56                           543
    x34       c58                           139
    x34       c59                           333
    x34       c63                           582
    x35       obj1                            1
    x35       c3                            671
    x35       c11                           326
    x35       c17                           197
    x35       c23                           321
    x35       c26                           605
    x35       c30                           535
    x35       c42                           157
    x35       c53                           434
    x35       c54                           396
    x35       c66                           882
    x35       c69                           919
    x36       obj1                            1
    x36       c6                            306
    x36       c11                           860
    x36       c24                           403
    x36       c25                           815
    x36       c41                           184
    x36       c42                           561
    x36       c43                           863
    x36       c44                           962
    x36       c55                           500
    x37       obj1                            1
    x37       c24                           260
    x37       c59                           153
    x37       c61                           300
    x37       c63                           438
    x37       c67                           991
    x38       obj1                            1
    x38       c4                            791
    x38       c17                           872
    x38       c18                           755
    x38       c33                           262
    x38       c35                           647
    x38       c36                           350
    x38       c44                           131
    x38       c55                           969
    x38       c67                           672
    x39       obj1                            1
    x39       c2                            279
    x39       c8                            667
    x39       c20                           958
    x39       c22                           610
    x39       c26                           685
    x39       c33                           857
    x39       c67                           801
    x40       obj1                            1
    x40       c6                            594
    x40       c10                           583
    x40       c43                           328
    x40       c45                           553
    x40       c65                           480
    x41       obj1                            1
    x41       c18                           947
    x41       c47                           418
    x41       c52                           449
    x41       c55                           854
    x42       obj1                            1
    x42       c18                           629
    x42       c29                           329
    x42       c30                           590
    x42       c31                           873
    x42       c38                           295
    x42       c47                           987
    x42       c53                           975
    x42       c54                           978
    x42       c56                           752
    x43       obj1                            1
    x43       c38                           521
    x43       c42                           670
    x43       c56                           420
    x43       c68                           432
    x43       c70                           886
    x44       obj1                            1
    x44       c44                           996
    x44       c63                           934
    x44       c68                           893
    x45       obj1                            1
    x45       c7                            937
    x45       c30                           773
    x45       c32                           921
    x45       c35                           814
    x45       c46                           804
    x45       c49                           765
    x45       c53                           208
    x46       obj1                            1
    x46       c3                            528
    x46       c6                            462
    x46       c36                           683
    x46       c42                           648
    x46       c47                           625
    x46       c50                           228
    x46       c55                           858
    x46       c56                           773
    x46       c67                           885
    x47       obj1                            1
    x47       c26                           939
    x47       c46                           723
    x47       c47                           657
    x47       c66                           601
    x48       obj1                            1
    x48       c2                            589
    x48       c6                            390
    x48       c10                           814
    x48       c20                           945
    x48       c33                           323
    x48       c42                           491
    x48       c51                           309
    x48       c55                           538
    x48       c57                           922
    x48       c58                           590
    x49       obj1                            1
    x49       c4                            416
    x49       c12                           931
    x49       c16                           388
    x49       c20                           671
    x49       c28                           920
    x49       c54                           266
    x49       c57                           465
    x50       obj1                            1
    x50       c1                            213
    x50       c8                            386
    x50       c14                           216
    x50       c25                           486
    x50       c31                           327
    x50       c38                           939
    x50       c42                           163
    x50       c46                           830
    x50       c58                           398
    x50       c60                           961
    x50       c62                           332
    x50       c64                           371
    x51       obj1                            1
    x51       c7                            745
    x51       c8                            464
    x51       c13                           729
    x51       c33                           398
    x51       c34                           276
    x51       c47                           480
    x52       obj1                            1
    x52       c1                            676
    x52       c6                            358
    x52       c9                            174
    x52       c11                           877
    x52       c18                           583
    x52       c21                           346
    x52       c33                           326
    x52       c38                           880
    x53       obj1                            1
    x53       c10                           775
    x53       c15                           920
    x53       c23                           930
    x53       c24                           371
    x53       c45                           228
    x54       obj1                            1
    x54       c18                           767
    x54       c23                           345
    x54       c29                           670
    x54       c32                           200
    x54       c34                           754
    x54       c39                           212
    x54       c41                           994
    x54       c56                           689
    x54       c63                           475
    x54       c68                           290
    x55       obj1                            1
    x55       c9                            917
    x55       c23                           459
    x55       c29                           663
    x55       c66                           910
    x56       obj1                            1
    x56       c18                           184
    x56       c20                           430
    x56       c23                           925
    x56       c26                           678
    x56       c46                           275
    x56       c51                           210
    x56       c61                           744
    x56       c69                           194
    x56       c70                           858
    x57       obj1                            1
    x57       c13                           873
    x57       c28                           996
    x57       c36                           665
    x57       c61                           994
    x57       c69                           769
    x58       obj1                            1
    x58       c19                           136
    x58       c26                           870
    x58       c34                           382
    x58       c46                           976
    x58       c52                           172
    x58       c69                           398
    x59       obj1                            1
    x59       c36                           566
    x59       c37                           463
    x59       c47                           683
    x59       c50                           229
    x60       obj1                            1
    x60       c8                            546
    x60       c10                           206
    x60       c13                           335
    x60       c23                           158
    x60       c25                           267
    x60       c48                           786
    x60       c57                           826
    x60       c62                           691
    x60       c67                           465
    x61       obj1                            1
    x61       c2                            796
    x61       c28                           974
    x61       c34                           757
    x61       c37                           339
    x61       c43                           519
    x61       c48                           972
    x61       c62                           348
    x62       obj1                            1
    x62       c3                            928
    x62       c6                            881
    x62       c18                           673
    x62       c36                           478
    x62       c49                           220
    x62       c67                           179
    x63       obj1                            1
    x63       c49                           253
    x63       c53                           370
    x63       c59                           293
    x64       obj1                            1
    x64       c12                           187
    x64       c15                           266
    x64       c21                           593
    x64       c31                           460
    x64       c58                           563
    x65       obj1                            1
    x65       c3                            670
    x65       c6                            757
    x65       c9                            772
    x65       c17                           663
    x65       c29                           560
    x65       c32                           200
    x65       c44                           939
    x65       c68                           391
    x66       obj1                            1
    x66       c12                           369
    x66       c19                           110
    x66       c24                           474
    x66       c36                           628
    x67       obj1                            1
    x67       c14                           428
    x67       c51                           283
    x68       obj1                            1
    x68       c7                            148
    x68       c11                           698
    x68       c22                           866
    x68       c30                           360
    x68       c31                           195
    x68       c38                           703
    x68       c53                           776
    x69       obj1                            1
    x69       c10                           380
    x69       c15                           860
    x69       c18                           552
    x69       c22                           157
    x69       c39                           264
    x69       c43                           881
    x69       c62                           519
    x70       obj1                            1
    x70       c7                            341
    x70       c12                           390
    x70       c35                           179
    x70       c41                           980
    x70       c48                           201
    x70       c49                           309
    x70       c50                           351
    MARK0001  'MARKER'                 'INTEND'
RHS
    rhs       c1                           1108
    rhs       c2                           1226
    rhs       c3                           2595
    rhs       c4                           1467
    rhs       c5                            728
    rhs       c6                           2841
    rhs       c7                           1819
    rhs       c8                           1458
    rhs       c9                           1363
    rhs       c10                          2764
    rhs       c11                          2086
    rhs       c12                           939
    rhs       c13                          1918
    rhs       c14                           837
    rhs       c15                          1673
    rhs       c16                           799
    rhs       c17                          2590
    rhs       c18                          2890
    rhs       c19                           750
    rhs       c20                          2767
    rhs       c21                          3456
    rhs       c22                          1457
    rhs       c23                          2376
    rhs       c24                          1572
    rhs       c25                           891
    rhs       c26                          2321
    rhs       c27                          1475
    rhs       c28                          1969
    rhs       c29                          2118
    rhs       c30                          1566
    rhs       c31                          2803
    rhs       c32                          2024
    rhs       c33                          1276
    rhs       c34                          2589
    rhs       c35                          1208
    rhs       c36                          1985
    rhs       c37                          1164
    rhs       c38                          2202
    rhs       c39                          1062
    rhs       c40                          1293
    rhs       c41                          1723
    rhs       c42                          2075
    rhs       c43                          3000
    rhs       c44                          2050
    rhs       c45                           891
    rhs       c46                          2627
    rhs       c47                          2307
    rhs       c48                          1920
    rhs       c49                          1514
    rhs       c50                          1851
    rhs       c51                           592
    rhs       c52                           835
    rhs       c53                          2467
    rhs       c54                          1325
    rhs       c55                          2798
    rhs       c56                          2160
    rhs       c57                          1637
    rhs       c58                           938
    rhs       c59                           877
    rhs       c60                          1269
    rhs       c61                          1977
    rhs       c62                          2053
    rhs       c63                          1961
    rhs       c64                          1036
    rhs       c65                           979
    rhs       c66                          2039
    rhs       c67                          2857
    rhs       c68                          2712
    rhs       c69                          2423
    rhs       c70                          2210
BOUNDS
 LI bnd       x1        0
 LI bnd       x2        0
 LI bnd       x3        0
 LI bnd       x4        0
 LI bnd       x5        0
 LI bnd       x6        0
 LI bnd       x7        0
 LI bnd       x8        0
 LI bnd       x9        0
 LI bnd       x10       0
 LI bnd       x11       0
 LI bnd       x12       0
 LI bnd       x13       0
 LI bnd       x14       0
 LI bnd       x15       0
 LI bnd       x16       0
 LI bnd       x17       0
 LI bnd       x18       0
 LI bnd       x19       0
 LI bnd       x20       0
 LI bnd       x21       0
 LI bnd       x22       0
 LI bnd       x23       0
 LI bnd       x24       0
 LI bnd       x25       0
 LI bnd       x26       0
 LI bnd       x27       0
 LI bnd       x28       0
 LI bnd       x29       0
 LI bnd       x30       0
 LI bnd       x31       0
 LI bnd       x32       0
 LI bnd       x33       0
 LI bnd       x34       0
 LI bnd       x35       0
 LI bnd       x36       0
 LI bnd       x37       0
 LI bnd       x38       0
 LI bnd       x39       0
 LI bnd       x40       0
 LI bnd       x41       0
 LI bnd       x42       0
 LI bnd       x43       0
 LI bnd       x44       0
 LI bnd       x45       0
 LI bnd       x46       0
 LI bnd       x47       0
 LI bnd       x48       0
 LI bnd       x49       0
 LI bnd       x50       0
 LI bnd       x51       0
 LI bnd       x52       0
 LI bnd       x53       0
 LI bnd       x54       0
 LI bnd       x55       0
 LI bnd       x56       0
 LI bnd       x57       0
 LI bnd       x58       0
 LI bnd       x59       0
 LI bnd       x60       0
 LI bnd       x61       0
 LI bnd       x62       0
 LI bnd       x63       0
 LI bnd       x64       0
 LI bnd       x65       0
 LI bnd       x66       0
 LI bnd       x67       0
 LI bnd       x68       0
 LI bnd       x69       0
 LI bnd       x70       0
ENDATA
